# Solution for model SBM-011-StripPacking-10
# Objective value = 39
c[B0,0] 19
c[B0,1] 18
c[B1,0] 48
c[B1,1] 5.5
c[B2,0] 21.5
c[B2,1] 6.5
c[B3,0] 53.5
c[B3,1] 36
c[B4,0] 91
c[B4,1] 10
c[B5,0] 31
c[B5,1] 22.5
c[B6,0] 7
c[B6,1] 27
c[B7,0] 50
c[B7,1] 29.5
c[B8,0] 47
c[B8,1] 21.5
c[B9,0] 60
c[B9,1] 17
h 39
delta[B0,B1] 0
delta[B0,B2] 0
delta[B0,B3] 0
delta[B0,B4] 0
delta[B0,B5] 0
delta[B0,B6] 1
delta[B0,B7] 0
delta[B0,B8] 0
delta[B0,B9] 0
delta[B1,B0] 0
delta[B1,B2] 1
delta[B1,B3] 1
delta[B1,B4] 0
delta[B1,B5] 1
delta[B1,B6] 1
delta[B1,B7] 1
delta[B1,B8] 1
delta[B1,B9] 0
delta[B2,B0] 1
delta[B2,B1] 1
delta[B2,B3] 1
delta[B2,B4] 0
delta[B2,B5] 1
delta[B2,B6] 1
delta[B2,B7] 1
delta[B2,B8] 1
delta[B2,B9] 0
delta[B3,B0] 0
delta[B3,B1] 0
delta[B3,B2] 0
delta[B3,B4] 0
delta[B3,B5] 1
delta[B3,B6] 1
delta[B3,B7] 0
delta[B3,B8] 0
delta[B3,B9] 0
delta[B4,B0] 0
delta[B4,B1] 0
delta[B4,B2] 0
delta[B4,B3] 0
delta[B4,B5] 1
delta[B4,B6] 1
delta[B4,B7] 1
delta[B4,B8] 1
delta[B4,B9] 1
delta[B5,B0] 0
delta[B5,B1] 0
delta[B5,B2] 0
delta[B5,B3] 1
delta[B5,B4] 1
delta[B5,B6] 1
delta[B5,B7] 0
delta[B5,B8] 0
delta[B5,B9] 0
delta[B6,B0] 1
delta[B6,B1] 1
delta[B6,B2] 1
delta[B6,B3] 1
delta[B6,B4] 1
delta[B6,B5] 1
delta[B6,B7] 0
delta[B6,B8] 0
delta[B6,B9] 0
delta[B7,B0] 0
delta[B7,B1] 0
delta[B7,B2] 0
delta[B7,B3] 1
delta[B7,B4] 1
delta[B7,B5] 0
delta[B7,B6] 0
delta[B7,B8] 0
delta[B7,B9] 0
delta[B8,B0] 0
delta[B8,B1] 0
delta[B8,B2] 0
delta[B8,B3] 1
delta[B8,B4] 1
delta[B8,B5] 0
delta[B8,B6] 0
delta[B8,B7] 1
delta[B8,B9] 0
delta[B9,B0] 0
delta[B9,B1] 0
delta[B9,B2] 0
delta[B9,B3] 1
delta[B9,B4] 1
delta[B9,B5] 0
delta[B9,B6] 0
delta[B9,B7] 0
delta[B9,B8] 0
DELTA[B0,B1] 0
DELTA[B0,B2] 0
DELTA[B0,B3] 0
DELTA[B0,B4] 0
DELTA[B0,B5] 0
DELTA[B0,B6] 1
DELTA[B0,B7] 0
DELTA[B0,B8] 0
DELTA[B0,B9] 0
DELTA[B1,B2] 1
DELTA[B1,B3] 0
DELTA[B1,B4] 0
DELTA[B1,B5] 0
DELTA[B1,B6] 1
DELTA[B1,B7] 0
DELTA[B1,B8] 0
DELTA[B1,B9] 0
DELTA[B2,B3] 0
DELTA[B2,B4] 0
DELTA[B2,B5] 0
DELTA[B2,B6] 1
DELTA[B2,B7] 0
DELTA[B2,B8] 0
DELTA[B2,B9] 0
DELTA[B3,B4] 0
DELTA[B3,B5] 1
DELTA[B3,B6] 1
DELTA[B3,B7] 0
DELTA[B3,B8] 0
DELTA[B3,B9] 0
DELTA[B4,B5] 1
DELTA[B4,B6] 1
DELTA[B4,B7] 1
DELTA[B4,B8] 1
DELTA[B4,B9] 1
DELTA[B5,B6] 1
DELTA[B5,B7] 0
DELTA[B5,B8] 0
DELTA[B5,B9] 0
DELTA[B6,B7] 0
DELTA[B6,B8] 0
DELTA[B6,B9] 0
DELTA[B7,B8] 0
DELTA[B7,B9] 0
DELTA[B8,B9] 0
